766
[0, 35, 28, 12, 69, 34, 56, 14, 23, 18, 25, 54, 48, 27, 7, 2, 31, 6, 1, 3, 17, 41, 40, 42, 16, 11, 20, 33, 60, 8, 67, 43, 13, 19, 29, 26, 45, 39, 44, 24, 38, 61, 53, 47, 10, 63, 64, 50, 55, 66, 32, 59, 51, 9, 49, 57, 36, 15, 46, 4, 52, 5, 65, 21, 62, 58, 68, 30, 37, 22]
